ecut 18.0          # Maximal kinetic energy cut-off, in Hartree
timopt -1

# Definition of the k-point grid
ngkpt   8 8 8
nshiftk 1
shiftk  0.0 0.0 0.0
nstep   50
diemac  12.0
istwfk *1

# Data common to the three different datasets

# Definition of the unit cell: fcc
acell  3*10.26         # Experimental lattice constants
rprim  0.0  0.5  0.5   # FCC primitive vectors (to be scaled by acell)
       0.5  0.0  0.5
       0.5  0.5  0.0

# Definition of the atom types
ntypat  1         # There is only one type of atom
znucl 14          # The keyword "znucl" refers to the atomic number of the
                  # possible type(s) of atom. The pseudopotential(s)
                  # mentioned in the "files" file must correspond
                  # to the type(s) of atom. Here, the only type is Silicon.

# Definition of the atoms
natom  2          # There are two atoms
typat  1 1        # They both are of type 1, that is, Silicon.
xred              # Reduced coordinate of atoms
      0.0  0.0  0.0
      0.25 0.25 0.25
