ecut 40          # Maximal kinetic energy cut-off, in Hartree
timopt -1

# Definition of the k-point grid
ngkpt   8 8 8
nshiftk 1
shiftk  0.0 0.0 0.0
nstep   50
diemac  12.0
istwfk *1

# Data common to the three different datasets

# Definition of the unit cell: rocksalt
#acell 3*8.03647176899458
acell 3*4.010 Angstrom  # Vasp paper
xred
   0.0000000000    0.0000000000    0.0000000000
   0.5000000000    0.5000000000    0.5000000000
rprim
  0   0.5 0.5
  0.5 0   0.5
  0.5 0.5 0  
typat 1 2
natom 2
ntypat 2
znucl 3 9

